StringID Type x y demand ReadyTime DueDate ServiceTime
D0 d 35 35.0 0.0 0.0 1000.0 0.0
Dt d 35 35.0 0.0 0.0 1000.0 0.0
C50 c3 47 47.0 13.0 507.0 599.0 10.0
C96 c3 22 27.0 11.0 0.0 974.0 10.0
C79 c2 57 48.0 23.0 0.0 964.0 10.0
C25 c1 65 20.0 6.0 418.0 532.0 10.0
C49 c1 6 68.0 30.0 0.0 946.0 10.0
P0 p 8 32.0 0.0 0.0 1000.0 5.0
param CV := 1000.0 nan nan nan nan
param V := 1.0 nan nan nan nan
